N = 7;
H = 6;
T = 2;

avail = array3d(1..N, 1..H, 1..T, [5, 5, 6, 9, 1, 4, 9, 1, 8, 4, 4, 10, 0, 4, 7, 2, 7, 5, 9, 0, 0, 9, 8, 2, 6, 7, 5, 9, 10, 4, 2, 0, 5, 1, 7, 4, 3, 1, 4, 4, 10, 0, 2, 3, 3, 10, 2, 7, 3, 7, 0, 1, 4, 5, 9, 1, 0, 9, 9, 6, 5, 0, 9, 2, 3, 1, 4, 5, 3, 4, 3, 10, 3, 8, 4, 7, 1, 6, 2, 7, 2, 0, 3, 0]);

r = array2d(1..H, 1..T, [1, 3, 2, 3, 1, 1, 0, 0, 3, 1, 0, 1]);
